(set-info :smt-lib-version 2.6)
(set-logic AUFLIA)
;synthesis
(declare-fun f0_c0_2 () Int)
(declare-fun f0_c0_1 () Int)
(declare-fun f0_c0_0 () Int)
(assert (let ((a!1 (and (<= f0_c0_0 1)
                (>= f0_c0_0 (- 1))
                (<= f0_c0_1 1)
                (>= f0_c0_1 (- 1))
                (<= f0_c0_2 1)
                (>= f0_c0_2 (- 1))))
      (a!2 (not (and (= 0 0) (not (<= 0 0)))))
      (a!3 (ite (>= (+ f0_c0_0 (* f0_c0_1 0) (* f0_c0_2 0)) 0) true false))
      (a!4 (or (and (= 0 0) (= 0 1)) (and (not (= 0 0)) (= 0 (+ 1 0)))))
      (a!5 (and (not (= 0 0)) (or (not (<= 0 0)) (not (<= 0 0))))))
(let ((a!6 (or a!5 (and (= 0 0) (not (<= 0 (- 1)))))))
(let ((a!7 (and (or a!2 a!3)
                (or (not (and a!4 a!3)) a!3)
                (or (not a!3) (not a!6)))))
  (and true
       (or false
           (= f0_c0_1 1)
           (= f0_c0_1 (- 1))
           (= f0_c0_2 1)
           (= f0_c0_2 (- 1))
           (and true (= f0_c0_1 0) (= f0_c0_2 0)))
       a!1
       a!1
       a!7
       a!7
       a!7
       a!7
       a!7
       a!7
       a!7
       a!7
       a!7
       a!7
       a!7
       a!7
       a!7
       a!7
       a!7
       a!7
       a!7
       a!7
       a!7
       a!7
       a!7
       a!7
       a!7
       a!7
       a!7
       a!7
       a!7
       a!7
       a!7
       a!7
       a!7
       a!7
       a!7
       a!7
       a!7
       a!7
       a!7
       a!7
       a!7
       a!7
       a!7
       a!7
       a!7
       a!7
       a!7
       a!7
       a!7
       a!7
       a!7
       a!7
       a!7
       a!7
       a!7
       a!7
       a!7
       a!7
       a!7
       a!7
       a!7
       a!7
       a!7
       a!7
       a!7
       a!7
       a!7
       a!7
       a!7
       a!7
       a!7
       a!7
       a!7
       a!7
       a!7
       a!7
       a!7
       a!7
       a!7
       a!7
       a!7
       a!7
       a!7
       a!7
       a!7
       a!7
       a!7
       a!7
       a!7
       a!7
       a!7
       a!7
       a!7
       a!7
       a!7
       a!7
       a!7
       a!7
       a!7
       a!7
       a!7
       a!7
       a!7
       a!7
       a!7
       a!7
       a!7
       a!7
       a!7
       a!7
       a!7
       a!7
       a!7
       a!7
       a!7
       a!7
       a!7
       a!7
       a!7
       a!7
       a!7
       a!7
       a!7
       a!7
       a!7
       a!7
       a!7
       a!7
       a!7
       a!7
       a!7
       a!7
       a!7
       a!7
       a!7
       a!7
       a!7
       a!7
       a!7
       a!7
       a!7
       a!7
       a!7
       a!7
       a!7
       a!7
       a!7
       a!7
       a!7
       a!7
       a!7
       a!7
       a!7
       a!7
       a!7
       a!7
       a!7
       a!7
       a!7
       a!7
       a!7
       a!7
       a!7
       a!7
       a!7
       a!7
       a!7
       a!7
       a!7
       a!7
       a!7
       a!7
       a!7
       a!7
       a!7
       a!7
       a!7
       a!7
       a!7
       a!7
       a!7
       a!7
       a!7
       a!7
       a!7
       a!7
       a!7
       a!7
       a!7
       a!7
       a!7
       a!7
       a!7
       a!7
       a!7
       a!7
       a!7
       a!7
       a!7
       a!7
       a!7
       a!7
       a!7
       a!7
       a!7
       a!7
       a!7
       a!7
       a!7
       a!7
       a!7
       a!7
       a!7
       a!7
       a!7
       a!7
       a!7
       a!7
       a!7
       a!7
       a!7
       a!7
       a!7
       a!7
       a!7
       a!7
       a!7
       a!7
       a!7
       a!7
       a!7
       a!7
       a!7
       a!7
       a!7
       a!7
       a!7
       a!7
       a!7
       a!7
       a!7
       a!7
       a!7
       a!7
       a!7
       a!7
       a!7
       a!7
       a!7
       a!7
       a!7
       a!7
       a!7
       a!7
       a!7
       a!7
       a!7
       a!7
       a!7
       a!7
       a!7
       a!7
       a!7
       a!7
       a!7
       a!7
       a!7
       a!7
       a!7
       a!7
       a!7
       a!7
       a!7
       a!7
       a!7
       a!7
       a!7
       a!7
       a!7
       a!7
       a!7
       a!7
       a!7
       a!7
       a!7
       a!7
       a!7
       a!7
       a!7
       a!7
       a!7
       a!7
       a!7
       a!7
       a!7
       a!7
       a!7
       a!7
       a!7
       a!7
       a!7
       a!7
       a!7
       a!7
       a!7
       a!7
       a!7
       a!7
       a!7
       a!7
       a!7
       a!7
       a!7
       a!7
       a!7
       a!7
       a!7
       a!7
       a!7
       a!7
       a!7
       a!7
       a!7
       a!7
       a!7
       a!7
       a!7
       a!7
       a!7
       a!7
       a!7
       a!7
       a!7
       a!7
       a!7
       a!7
       a!7
       a!7
       a!7
       a!7
       a!7
       a!7
       a!7
       a!7
       a!7
       a!7
       a!7
       a!7
       a!7
       a!7
       a!7
       a!7
       a!7
       a!7
       a!7
       a!7
       a!7
       a!7
       a!7
       a!7
       a!7
       a!7
       a!7
       a!7
       a!7
       a!7
       a!7
       a!7
       a!7
       a!7
       a!7
       a!7
       a!7
       a!7
       a!7
       a!7
       a!7
       a!7
       a!7
       a!7
       a!7
       a!7
       a!7
       a!7
       a!7
       a!7
       a!7
       a!7
       a!7
       a!7
       a!7
       a!7
       a!7
       a!7
       a!7
       a!7
       a!7
       a!7
       a!7
       a!7
       a!7
       a!7
       a!7
       a!7
       a!7
       a!7
       a!7
       a!7
       a!7
       a!7
       a!7
       a!7
       a!7
       a!7
       a!7
       a!7
       a!7
       a!7
       a!7
       a!7
       a!7
       a!7
       a!7
       a!7
       a!7
       a!7
       a!7
       a!7
       a!7
       a!7
       a!7
       a!7
       a!7
       a!7
       a!7
       a!7
       a!7
       a!7
       a!7
       a!7
       a!7
       a!7
       a!7
       a!7
       a!7
       a!7
       a!7
       a!7
       a!7
       a!7
       a!7
       a!7
       a!7
       a!7
       a!7
       a!7
       a!7
       a!7
       a!7
       a!7
       a!7
       a!7
       a!7
       a!7
       a!7
       a!7
       a!7
       a!7
       a!7
       a!7
       a!7
       a!7
       a!7
       a!7
       a!7
       a!7
       a!7
       a!7
       a!7
       a!7
       a!7
       a!7
       a!7
       a!7
       a!7
       a!7
       a!7
       a!7
       a!7
       a!7
       a!7
       a!7
       a!7
       a!7
       a!7
       a!7
       a!7
       a!7
       a!7
       a!7
       a!7
       a!7
       a!7
       a!7
       a!7
       a!7
       a!7
       a!7
       a!7
       a!7
       a!7
       a!7
       a!7
       a!7
       a!7
       a!7
       a!7
       a!7
       a!7
       a!7
       a!7
       a!7
       a!7
       a!7
       a!7
       a!7
       a!7
       a!7
       a!7
       a!7
       a!7
       a!7
       a!7
       a!7
       a!7
       a!7
       a!7
       a!7
       a!7
       a!7
       a!7
       a!7
       a!7
       a!7
       a!7
       a!7
       a!7
       a!7
       a!7
       a!7
       a!7
       a!7
       a!7
       a!7
       a!7
       a!7
       a!7
       a!7
       a!7
       a!7
       a!7
       a!7
       a!7
       a!7
       a!7
       a!7
       a!7
       a!7
       a!7
       a!7
       a!7
       a!7
       a!7
       a!7
       a!7
       a!7
       a!7
       a!7
       a!7
       a!7
       a!7
       a!7
       a!7
       a!7
       a!7
       a!7
       a!7
       a!7)))))
(check-sat)
